&CONTROL
	calculation = 'scf'
	prefix = 'test'
	pseudo_dir = '/home/meyn/q-e-qe-7.1/pseudo'
/
$SYSTEM
	ibrav = 0
	nat = 2
	ntyp = 1
	ecutwfc = 30
/
$ELECTRONS
	conv_thr = 1.0d-8
/
ATOMIC_SPECIES
	H 1.0 H.pbe.rrkjus.UPF
ATOMIC_POSITIONS alat
        H 0.0 0.0 0.0
	H 0.0 0.0 1.0
K_POINTS automatic
	1 1 1 0 0 0	
