Monoclinic phase (M1) of VO2
1.0
       11.4300003052         0.0000000000         0.0000000000
        0.0000000000         9.1079998016         0.0000000000
       -5.8020016362         0.0000000000         9.0739986739
    V    O
   32   64
Direct
     0.127407998         0.252108008         0.375416011
     0.127407998         0.252108008         0.875416040
     0.127407998         0.752107978         0.375416011
     0.127407998         0.752107978         0.875416040
     0.627408028         0.252108008         0.375416011
     0.627408028         0.252108008         0.875416040
     0.627408028         0.752107978         0.375416011
     0.627408028         0.752107978         0.875416040
     0.122592002         0.002108000         0.124582998
     0.122592002         0.002108000         0.624583006
     0.122592002         0.502107978         0.124582998
     0.122592002         0.502107978         0.624583006
     0.622591972         0.002108000         0.124582998
     0.622591972         0.002108000         0.624583006
     0.622591972         0.502107978         0.124582998
     0.622591972         0.502107978         0.624583006
     0.372592002         0.247892007         0.124582998
     0.372592002         0.247892007         0.624583006
     0.372592002         0.747892022         0.124582998
     0.372592002         0.747892022         0.624583006
     0.872591972         0.247892007         0.124582998
     0.872591972         0.247892007         0.624583006
     0.872591972         0.747892022         0.124582998
     0.872591972         0.747892022         0.624583006
     0.377407998         0.497891992         0.375416011
     0.377407998         0.497891992         0.875416040
     0.377407998         0.997892022         0.375416011
     0.377407998         0.997892022         0.875416040
     0.877408028         0.497891992         0.375416011
     0.877408028         0.497891992         0.875416040
     0.877408028         0.997892022         0.375416011
     0.877408028         0.997892022         0.875416040
     0.299529999         0.149157003         0.449923009
     0.299529999         0.149157003         0.949923038
     0.299529999         0.649156988         0.449923009
     0.299529999         0.649156988         0.949923038
     0.799530029         0.149157003         0.449923009
     0.799530029         0.149157003         0.949923038
     0.799530029         0.649156988         0.449923009
     0.799530029         0.649156988         0.949923038
     0.450199991         0.399156988         0.050078001
     0.450199991         0.399156988         0.550077975
     0.450199991         0.899156988         0.050078001
     0.450199991         0.899156988         0.550077975
     0.950199962         0.399156988         0.050078001
     0.950199962         0.399156988         0.550077975
     0.950199962         0.899156988         0.050078001
     0.950199962         0.899156988         0.550077975
     0.200470001         0.350843012         0.050078001
     0.200470001         0.350843012         0.550077975
     0.200470001         0.850843012         0.050078001
     0.200470001         0.850843012         0.550077975
     0.700469971         0.350843012         0.050078001
     0.700469971         0.350843012         0.550077975
     0.700469971         0.850843012         0.050078001
     0.700469971         0.850843012         0.550077975
     0.049529999         0.100841999         0.449923009
     0.049529999         0.100841999         0.949923038
     0.049529999         0.600841999         0.449923009
     0.049529999         0.600841999         0.949923038
     0.549530029         0.100841999         0.449923009
     0.549530029         0.100841999         0.949923038
     0.549530029         0.600841999         0.449923009
     0.549530029         0.600841999         0.949923038
     0.199524999         0.399313986         0.299596995
     0.199524999         0.399313986         0.799597025
     0.199524999         0.899313986         0.299596995
     0.199524999         0.899313986         0.799597025
     0.699524999         0.399313986         0.299596995
     0.699524999         0.399313986         0.799597025
     0.699524999         0.899313986         0.299596995
     0.699524999         0.899313986         0.799597025
     0.050475001         0.149314001         0.200403005
     0.050475001         0.149314001         0.700402975
     0.050475001         0.649313986         0.200403005
     0.050475001         0.649313986         0.700402975
     0.550475001         0.149314001         0.200403005
     0.550475001         0.149314001         0.700402975
     0.550475001         0.649313986         0.200403005
     0.550475001         0.649313986         0.700402975
     0.300475001         0.100685000         0.200403005
     0.300475001         0.100685000         0.700402975
     0.300475001         0.600685000         0.200403005
     0.300475001         0.600685000         0.700402975
     0.800475001         0.100685000         0.200403005
     0.800475001         0.100685000         0.700402975
     0.800475001         0.600685000         0.200403005
     0.800475001         0.600685000         0.700402975
     0.449524999         0.350686014         0.299596995
     0.449524999         0.350686014         0.799597025
     0.449524999         0.850686014         0.299596995
     0.449524999         0.850686014         0.799597025
     0.949524999         0.350686014         0.299596995
     0.949524999         0.350686014         0.799597025
     0.949524999         0.850686014         0.299596995
     0.949524999         0.850686014         0.799597025
