&CONTROL
  calculation = 'scf',
  prefix = 'silicon',
  outdir = './tmp/',
  pseudo_dir = '/home/meyn/q-e-qe-7.1/pseudo/',
  verbosity = 'high'
/

&SYSTEM
  ibrav =  2,
  celldm(1) = 10.26,
  nat =  2,
  ntyp = 1,
  ecutwfc = 40,
  nbnd = 20,
  nosym = .TRUE.,
  noinv = .TRUE.
/

&ELECTRONS
  mixing_beta = 0.6
/

ATOMIC_SPECIES
  Si 28.086 Si.pz-vbc.UPF

ATOMIC_POSITIONS (alat)
  Si 0.0 0.0 0.0
  Si 0.25 0.25 0.25

K_POINTS crystal
216
0.0000000 0.0000000 0.0000000 4.629630e-03
-0.1666667 -0.1666667 0.1666667 4.629630e-03
-0.3333333 -0.3333333 0.3333333 4.629630e-03
-0.5000000 -0.5000000 0.5000000 4.629630e-03
-0.6666667 -0.6666667 0.6666667 4.629630e-03
-0.8333333 -0.8333333 0.8333333 4.629630e-03
0.1666667 0.1666667 0.1666667 4.629630e-03
0.0000000 0.0000000 0.3333333 4.629630e-03
-0.1666667 -0.1666667 0.5000000 4.629630e-03
-0.3333333 -0.3333333 0.6666667 4.629630e-03
-0.5000000 -0.5000000 0.8333333 4.629630e-03
-0.6666667 -0.6666667 1.0000000 4.629630e-03
0.3333333 0.3333333 0.3333333 4.629630e-03
0.1666667 0.1666667 0.5000000 4.629630e-03
0.0000000 0.0000000 0.6666667 4.629630e-03
-0.1666667 -0.1666667 0.8333333 4.629630e-03
-0.3333333 -0.3333333 1.0000000 4.629630e-03
-0.5000000 -0.5000000 1.1666667 4.629630e-03
0.5000000 0.5000000 0.5000000 4.629630e-03
0.3333333 0.3333333 0.6666667 4.629630e-03
0.1666667 0.1666667 0.8333333 4.629630e-03
0.0000000 0.0000000 1.0000000 4.629630e-03
-0.1666667 -0.1666667 1.1666667 4.629630e-03
-0.3333333 -0.3333333 1.3333333 4.629630e-03
0.6666667 0.6666667 0.6666667 4.629630e-03
0.5000000 0.5000000 0.8333333 4.629630e-03
0.3333333 0.3333333 1.0000000 4.629630e-03
0.1666667 0.1666667 1.1666667 4.629630e-03
0.0000000 0.0000000 1.3333333 4.629630e-03
-0.1666667 -0.1666667 1.5000000 4.629630e-03
0.8333333 0.8333333 0.8333333 4.629630e-03
0.6666667 0.6666667 1.0000000 4.629630e-03
0.5000000 0.5000000 1.1666667 4.629630e-03
0.3333333 0.3333333 1.3333333 4.629630e-03
0.1666667 0.1666667 1.5000000 4.629630e-03
0.0000000 0.0000000 1.6666667 4.629630e-03
-0.1666667 0.1666667 -0.1666667 4.629630e-03
-0.3333333 0.0000000 0.0000000 4.629630e-03
-0.5000000 -0.1666667 0.1666667 4.629630e-03
-0.6666667 -0.3333333 0.3333333 4.629630e-03
-0.8333333 -0.5000000 0.5000000 4.629630e-03
-1.0000000 -0.6666667 0.6666667 4.629630e-03
0.0000000 0.3333333 0.0000000 4.629630e-03
-0.1666667 0.1666667 0.1666667 4.629630e-03
-0.3333333 0.0000000 0.3333333 4.629630e-03
-0.5000000 -0.1666667 0.5000000 4.629630e-03
-0.6666667 -0.3333333 0.6666667 4.629630e-03
-0.8333333 -0.5000000 0.8333333 4.629630e-03
0.1666667 0.5000000 0.1666667 4.629630e-03
0.0000000 0.3333333 0.3333333 4.629630e-03
-0.1666667 0.1666667 0.5000000 4.629630e-03
-0.3333333 -0.0000000 0.6666667 4.629630e-03
-0.5000000 -0.1666667 0.8333333 4.629630e-03
-0.6666667 -0.3333333 1.0000000 4.629630e-03
0.3333333 0.6666667 0.3333333 4.629630e-03
0.1666667 0.5000000 0.5000000 4.629630e-03
0.0000000 0.3333333 0.6666667 4.629630e-03
-0.1666667 0.1666667 0.8333333 4.629630e-03
-0.3333333 0.0000000 1.0000000 4.629630e-03
-0.5000000 -0.1666667 1.1666667 4.629630e-03
0.5000000 0.8333333 0.5000000 4.629630e-03
0.3333333 0.6666667 0.6666667 4.629630e-03
0.1666667 0.5000000 0.8333333 4.629630e-03
-0.0000000 0.3333333 1.0000000 4.629630e-03
-0.1666667 0.1666667 1.1666667 4.629630e-03
-0.3333333 -0.0000000 1.3333333 4.629630e-03
0.6666667 1.0000000 0.6666667 4.629630e-03
0.5000000 0.8333333 0.8333333 4.629630e-03
0.3333333 0.6666667 1.0000000 4.629630e-03
0.1666667 0.5000000 1.1666667 4.629630e-03
0.0000000 0.3333333 1.3333333 4.629630e-03
-0.1666667 0.1666667 1.5000000 4.629630e-03
-0.3333333 0.3333333 -0.3333333 4.629630e-03
-0.5000000 0.1666667 -0.1666667 4.629630e-03
-0.6666667 0.0000000 0.0000000 4.629630e-03
-0.8333333 -0.1666667 0.1666667 4.629630e-03
-1.0000000 -0.3333333 0.3333333 4.629630e-03
-1.1666667 -0.5000000 0.5000000 4.629630e-03
-0.1666667 0.5000000 -0.1666667 4.629630e-03
-0.3333333 0.3333333 0.0000000 4.629630e-03
-0.5000000 0.1666667 0.1666667 4.629630e-03
-0.6666667 -0.0000000 0.3333333 4.629630e-03
-0.8333333 -0.1666667 0.5000000 4.629630e-03
-1.0000000 -0.3333333 0.6666667 4.629630e-03
0.0000000 0.6666667 0.0000000 4.629630e-03
-0.1666667 0.5000000 0.1666667 4.629630e-03
-0.3333333 0.3333333 0.3333333 4.629630e-03
-0.5000000 0.1666667 0.5000000 4.629630e-03
-0.6666667 0.0000000 0.6666667 4.629630e-03
-0.8333333 -0.1666667 0.8333333 4.629630e-03
0.1666667 0.8333333 0.1666667 4.629630e-03
0.0000000 0.6666667 0.3333333 4.629630e-03
-0.1666667 0.5000000 0.5000000 4.629630e-03
-0.3333333 0.3333333 0.6666667 4.629630e-03
-0.5000000 0.1666667 0.8333333 4.629630e-03
-0.6666667 -0.0000000 1.0000000 4.629630e-03
0.3333333 1.0000000 0.3333333 4.629630e-03
0.1666667 0.8333333 0.5000000 4.629630e-03
0.0000000 0.6666667 0.6666667 4.629630e-03
-0.1666667 0.5000000 0.8333333 4.629630e-03
-0.3333333 0.3333333 1.0000000 4.629630e-03
-0.5000000 0.1666667 1.1666667 4.629630e-03
0.5000000 1.1666667 0.5000000 4.629630e-03
0.3333333 1.0000000 0.6666667 4.629630e-03
0.1666667 0.8333333 0.8333333 4.629630e-03
0.0000000 0.6666667 1.0000000 4.629630e-03
-0.1666667 0.5000000 1.1666667 4.629630e-03
-0.3333333 0.3333333 1.3333333 4.629630e-03
-0.5000000 0.5000000 -0.5000000 4.629630e-03
-0.6666667 0.3333333 -0.3333333 4.629630e-03
-0.8333333 0.1666667 -0.1666667 4.629630e-03
-1.0000000 0.0000000 0.0000000 4.629630e-03
-1.1666667 -0.1666667 0.1666667 4.629630e-03
-1.3333333 -0.3333333 0.3333333 4.629630e-03
-0.3333333 0.6666667 -0.3333333 4.629630e-03
-0.5000000 0.5000000 -0.1666667 4.629630e-03
-0.6666667 0.3333333 0.0000000 4.629630e-03
-0.8333333 0.1666667 0.1666667 4.629630e-03
-1.0000000 0.0000000 0.3333333 4.629630e-03
-1.1666667 -0.1666667 0.5000000 4.629630e-03
-0.1666667 0.8333333 -0.1666667 4.629630e-03
-0.3333333 0.6666667 0.0000000 4.629630e-03
-0.5000000 0.5000000 0.1666667 4.629630e-03
-0.6666667 0.3333333 0.3333333 4.629630e-03
-0.8333333 0.1666667 0.5000000 4.629630e-03
-1.0000000 0.0000000 0.6666667 4.629630e-03
0.0000000 1.0000000 0.0000000 4.629630e-03
-0.1666667 0.8333333 0.1666667 4.629630e-03
-0.3333333 0.6666667 0.3333333 4.629630e-03
-0.5000000 0.5000000 0.5000000 4.629630e-03
-0.6666667 0.3333333 0.6666667 4.629630e-03
-0.8333333 0.1666667 0.8333333 4.629630e-03
0.1666667 1.1666667 0.1666667 4.629630e-03
0.0000000 1.0000000 0.3333333 4.629630e-03
-0.1666667 0.8333333 0.5000000 4.629630e-03
-0.3333333 0.6666667 0.6666667 4.629630e-03
-0.5000000 0.5000000 0.8333333 4.629630e-03
-0.6666667 0.3333333 1.0000000 4.629630e-03
0.3333333 1.3333333 0.3333333 4.629630e-03
0.1666667 1.1666667 0.5000000 4.629630e-03
0.0000000 1.0000000 0.6666667 4.629630e-03
-0.1666667 0.8333333 0.8333333 4.629630e-03
-0.3333333 0.6666667 1.0000000 4.629630e-03
-0.5000000 0.5000000 1.1666667 4.629630e-03
-0.6666667 0.6666667 -0.6666667 4.629630e-03
-0.8333333 0.5000000 -0.5000000 4.629630e-03
-1.0000000 0.3333333 -0.3333333 4.629630e-03
-1.1666667 0.1666667 -0.1666667 4.629630e-03
-1.3333333 0.0000000 0.0000000 4.629630e-03
-1.5000000 -0.1666667 0.1666667 4.629630e-03
-0.5000000 0.8333333 -0.5000000 4.629630e-03
-0.6666667 0.6666667 -0.3333333 4.629630e-03
-0.8333333 0.5000000 -0.1666667 4.629630e-03
-1.0000000 0.3333333 0.0000000 4.629630e-03
-1.1666667 0.1666667 0.1666667 4.629630e-03
-1.3333333 -0.0000000 0.3333333 4.629630e-03
-0.3333333 1.0000000 -0.3333333 4.629630e-03
-0.5000000 0.8333333 -0.1666667 4.629630e-03
-0.6666667 0.6666667 0.0000000 4.629630e-03
-0.8333333 0.5000000 0.1666667 4.629630e-03
-1.0000000 0.3333333 0.3333333 4.629630e-03
-1.1666667 0.1666667 0.5000000 4.629630e-03
-0.1666667 1.1666667 -0.1666667 4.629630e-03
-0.3333333 1.0000000 0.0000000 4.629630e-03
-0.5000000 0.8333333 0.1666667 4.629630e-03
-0.6666667 0.6666667 0.3333333 4.629630e-03
-0.8333333 0.5000000 0.5000000 4.629630e-03
-1.0000000 0.3333333 0.6666667 4.629630e-03
0.0000000 1.3333333 0.0000000 4.629630e-03
-0.1666667 1.1666667 0.1666667 4.629630e-03
-0.3333333 1.0000000 0.3333333 4.629630e-03
-0.5000000 0.8333333 0.5000000 4.629630e-03
-0.6666667 0.6666667 0.6666667 4.629630e-03
-0.8333333 0.5000000 0.8333333 4.629630e-03
0.1666667 1.5000000 0.1666667 4.629630e-03
0.0000000 1.3333333 0.3333333 4.629630e-03
-0.1666667 1.1666667 0.5000000 4.629630e-03
-0.3333333 1.0000000 0.6666667 4.629630e-03
-0.5000000 0.8333333 0.8333333 4.629630e-03
-0.6666667 0.6666667 1.0000000 4.629630e-03
-0.8333333 0.8333333 -0.8333333 4.629630e-03
-1.0000000 0.6666667 -0.6666667 4.629630e-03
-1.1666667 0.5000000 -0.5000000 4.629630e-03
-1.3333333 0.3333333 -0.3333333 4.629630e-03
-1.5000000 0.1666667 -0.1666667 4.629630e-03
-1.6666667 0.0000000 0.0000000 4.629630e-03
-0.6666667 1.0000000 -0.6666667 4.629630e-03
-0.8333333 0.8333333 -0.5000000 4.629630e-03
-1.0000000 0.6666667 -0.3333333 4.629630e-03
-1.1666667 0.5000000 -0.1666667 4.629630e-03
-1.3333333 0.3333333 -0.0000000 4.629630e-03
-1.5000000 0.1666667 0.1666667 4.629630e-03
-0.5000000 1.1666667 -0.5000000 4.629630e-03
-0.6666667 1.0000000 -0.3333333 4.629630e-03
-0.8333333 0.8333333 -0.1666667 4.629630e-03
-1.0000000 0.6666667 -0.0000000 4.629630e-03
-1.1666667 0.5000000 0.1666667 4.629630e-03
-1.3333333 0.3333333 0.3333333 4.629630e-03
-0.3333333 1.3333333 -0.3333333 4.629630e-03
-0.5000000 1.1666667 -0.1666667 4.629630e-03
-0.6666667 1.0000000 -0.0000000 4.629630e-03
-0.8333333 0.8333333 0.1666667 4.629630e-03
-1.0000000 0.6666667 0.3333333 4.629630e-03
-1.1666667 0.5000000 0.5000000 4.629630e-03
-0.1666667 1.5000000 -0.1666667 4.629630e-03
-0.3333333 1.3333333 -0.0000000 4.629630e-03
-0.5000000 1.1666667 0.1666667 4.629630e-03
-0.6666667 1.0000000 0.3333333 4.629630e-03
-0.8333333 0.8333333 0.5000000 4.629630e-03
-1.0000000 0.6666667 0.6666667 4.629630e-03
0.0000000 1.6666667 0.0000000 4.629630e-03
-0.1666667 1.5000000 0.1666667 4.629630e-03
-0.3333333 1.3333333 0.3333333 4.629630e-03
-0.5000000 1.1666667 0.5000000 4.629630e-03
-0.6666667 1.0000000 0.6666667 4.629630e-03
-0.8333333 0.8333333 0.8333333 4.629630e-03
