 &CONTROL
   calculation     =  'scf'
   outdir          =  './tmp/'
   prefix          =  'silicon'
   pseudo_dir      =  '/home/meyn/q-e-qe-7.1/pseudo/'
   verbosity       =  'high'
 /

 &SYSTEM
   celldm(1)       =  9.7
   ecutwfc         =  30
   ibrav           =  2
   nat             =  2
   nbnd            =  8
   ntyp            =  1
 /

 &ELECTRONS
   mixing_beta     =  0.6
 /

ATOMIC_SPECIES 
  Si    28.086   Si.pz-vbc.UPF 


ATOMIC_POSITIONS (alat)
  Si       0.000000000000   0.000000000000   0.000000000000
  Si       0.250000000000   0.250000000000   0.250000000000

K_POINTS automatic
  6   6   6   1   1   1 



