&CONTROL
  calculation = 'bands'
  etot_conv_thr =   1.2000000000d-04
  forc_conv_thr =   1.0000000000d-04
  outdir = './out/'
  prefix = 'aiida'
  pseudo_dir = './pseudo/'
  tprnfor = .true.
  tstress = .true.
  verbosity = 'high'
/
&SYSTEM
  degauss =   1.4699723600d-02
  ecutrho =   4.0000000000d+02
  ecutwfc =   5.0000000000d+01
  ibrav = 0
  nat = 12
  nosym = .false.
  ntyp = 2
  occupations = 'smearing'
  smearing = 'cold'
/
&ELECTRONS
  conv_thr =   2.4000000000d-09
  electron_maxstep = 80
  mixing_beta =   4.0000000000d-01
/
ATOMIC_SPECIES
O      15.9994 O.pbesol-n-kjpaw_psl.0.1.UPF
V      50.9415 v_pbesol_v1.4.uspp.F.UPF
ATOMIC_POSITIONS crystal
V            0.2548160000       0.5042160000       0.7508330000 
V            0.2451840000       0.0042160000       0.2491670000 
V            0.7451840000       0.4957840000       0.2491670000 
V            0.7548160000       0.9957840000       0.7508330000 
O            0.5990600000       0.2983150000       0.8998450000 
O            0.9004000000       0.7983150000       0.1001550000 
O            0.4009400000       0.7016850000       0.1001550000 
O            0.0990600000       0.2016850000       0.8998450000 
O            0.3990500000       0.7986290000       0.5991940000 
O            0.1009500000       0.2986290000       0.4008060000 
O            0.6009500000       0.2013710000       0.4008060000 
O            0.8990500000       0.7013710000       0.5991940000 
K_POINTS crystal
0.0000000000	0.0000000000	0.0000000000
-0.5000000000	-0.5000000000	0.5000000000
0.5000000000	0.5000000000	-0.5000000000
0.0000000000	-0.5000000000	0.5000000000
-0.0000000000	0.5000000000	-0.5000000000
-0.5000000000	0.0000000000	0.5000000000
0.5000000000	-0.0000000000	-0.5000000000
0.5000000000	-0.5000000000	0.0000000000
-0.5000000000	0.5000000000	-0.0000000000
0.5000000000	0.0000000000	0.0000000000
-0.5000000000	-0.0000000000	-0.0000000000
0.0000000000	0.5000000000	0.0000000000
-0.0000000000	-0.5000000000	-0.0000000000
0.0000000000	-0.5000000000	0.0000000000
-0.0000000000	0.5000000000	-0.0000000000
0.0000000000	0.0000000000	0.5000000000
-0.0000000000	-0.0000000000	-0.5000000000


CELL_PARAMETERS angstrom
      5.7150000000       0.0000000000       0.0000000000
      0.0000000000       4.5540000000       0.0000000000
     -2.9010000000       0.0000000000       4.5370000000
