Sulfur primitive face-centered orthorhombic crystal structure
10.47 12.87 24.49
0 0.5 0.5
0.5 0 0.5
0.5 0.5 0
S
4
Direct
0.8554 0.9526 0.9516
0.7844 0.0301 0.0763
0.7069 0.9795 0.0040
0.7862 0.9073 0.1290

