Phosphorus primitive simple triclinic crystal structure
1.0
   5.6711142860363353    0.0000000000000000    0.0000000000000000
  -2.0865600265997468   10.9397556127772528    0.0000000000000000
  -1.8655915169458441   -1.0541351676492048   11.1158269508356966
P
24
direct
   0.0715771300000000    0.0012257400000000    0.1815483099999999 P
   0.9284228700000000    0.9987742600000000    0.8184516900000001 P
   0.8380791399999998    0.9474835600000000    0.3122769299999999 P
   0.1619208600000002    0.0525164400000000    0.6877230700000001 P
   0.0045006600000000    0.1402555800000000    0.3097761099999999 P
   0.9954993400000000    0.8597444200000000    0.6902238900000002 P
   0.2313722300000000    0.0105191400000000    0.3716829499999999 P
   0.7686277700000000    0.9894808600000000    0.6283170500000002 P
   0.7750221100000000    0.3731206600000000    0.0598843000000000 P
   0.2249778900000000    0.6268793400000000    0.9401157000000000 P
   0.5922482699999999    0.1805054500000000    0.0352610100000000 P
   0.4077517300000001    0.8194945499999999    0.9647389900000000 P
   0.5085773799999999    0.3058123900000000    0.1714625799999999 P
   0.4914226200000001    0.6941876100000000    0.8285374200000001 P
   0.3877889399999999    0.3214937500000000    0.9809588899999999 P
   0.6122110600000001    0.6785062500000000    0.0190411100000001 P
   0.3027542300000000    0.6871147900000000    0.4672778199999999 P
   0.6972457700000001    0.3128852100000000    0.5327221800000002 P
   0.9321813699999999    0.6270229899999999    0.3659666099999999 P
   0.0678186300000001    0.3729770100000001    0.6340333900000001 P
   0.1994915999999999    0.5102817100000000    0.3589023299999999 P
   0.8005084000000000    0.4897182900000000    0.6410976700000002 P
   0.2355383199999999    0.6805199500000000    0.2713782299999999 P
   0.7644616800000000    0.3194800500000000    0.7286217700000002 P
