Silver FCC Primitive Crystal Structure
4.09
0.0 0.5 0.5
0.5 0.0 0.5
0.5 0.5 0.0
Ag
1
Direct
0.0 0.0 0.0
