Iron BCC Conventional Crystal Structure
2.87
1 0 0
0 1 0
0 0 1
Fe
2
direct
0.0 0.0 0.0
0.5 0.5 0.5
