Ag FCC Conventional Crystal Structure
4.09
1 0.0 0.0
0.0 1 0.0
0.0 0.0 1
Ag
4
Direct
0.0 0.0 0.0
0.5 0.5 0.0
0.5 0.0 0.5
0.0 0.5 0.5
