Lithium fluoride sodium chloride structure
4.02
1.0 0.0 0.0
0.0 1.0 0.0
0.0 0.0 1.0
Li F
8 8
Direct
0.000 0.000 0.000
0.000 0.000 0.500
0.000 0.500 0.000
0.000 0.500 0.500
0.500 0.000 0.000
0.500 0.000 0.500
0.500 0.500 0.000
0.500 0.500 0.500
0.250 0.250 0.250
0.250 0.250 0.750
0.250 0.750 0.250
0.250 0.750 0.750
0.750 0.250 0.250
0.750 0.250 0.750
0.750 0.750 0.250
0.750 0.750 0.750 
