Silicene with Optimized Structure
1.0
1.950975878 -3.379280995 -0.000000000
1.950975878  3.379280995  0.000000000
-0.000000000  0.000000000 11.999321667
Si
2
Direct
0.9983404670 0.001659533 0.000000000
0.331659533 0.668340467  0.000000000

