&CONTROL
calculation = 'scf'
max_seconds = 8.64000e+04
wf_collect = .true.
verbosity = 'high'
prefix = 'pristine_sil'
outdir = './tmp/'
pseudo_dir = '/home/meyn/q-e-qe-7.1/pseudo/'
/

&SYSTEM
a = 3.86211
c = 1.87921e+01
degauss = 0.011
ecutrho = 650
ecutwfc = 65
ibrav = 4
nat = 2
nbnd = 12
ntyp = 1
occupations = 'smearing'
smearing = 'fermi-dirac'
/

&ELECTRONS
conv_thr = 1.00000e-07
mixing_beta = 0.4
startingpot = 'atomic'
startingwfc = 'atomic+random'
/

K_POINTS (automatic)
10 10 1 0 0 0

ATOMIC_SPECIES
Si 28.08600 si_pbesol_v1.uspp.F.UPF

ATOMIC_POSITIONS (angstrom)
Si -0.029660701 0.105173596 0.198398975
Si 1.882052701 1.208903404 0.692422025
