&BANDS
  prefix = 'silicene'
  outdir = './tmp/'
  filband = 'silicene_bands.dat'
/
