&DOS
  prefix='silicene',
  outdir='./tmp/',
  fildos='silicene_dos.dat'
/

