&CONTROL
  calculation     = 'vc-relax'
  etot_conv_thr   = 2.0000000000d-05
  forc_conv_thr   = 1.0000000000d-04
  outdir          = './tmp/'
  prefix          = 'silicene'
  pseudo_dir      = '/home/meyn/q-e-qe-7.1/pseudo/'
  tprnfor         = .true.
  verbosity       = 'high'
  nstep           = 50
/

&SYSTEM
  ibrav           = 0
  nat             = 2
  ntyp            = 1
  occupations     = 'smearing'
  smearing        = 'cold'
  degauss         = 1.4699723600d-02
  ecutrho         = 2.4000000000d+02
  ecutwfc         = 5.0000000000d+01
/

&ELECTRONS
  conv_thr        = 4.0000000000d-10
  electron_maxstep = 80
  mixing_beta     = 4.0000000000d-01
/

&IONS
/

&CELL
  cell_dofree = 'ibrav'
/

ATOMIC_SPECIES
  Si  28.0855  Si.pbe-n-rrkjus_psl.1.0.0.UPF

ATOMIC_POSITIONS crystal
  Si           0.0000000000       0.0000000000       0.0000000000
  Si           0.3300000000       0.6700000000       0.0000000000

K_POINTS automatic
10 10 1 0 0 0

CELL_PARAMETERS angstrom
  1.9250000000      -3.3110000000       0.0000000000
  1.9250000000       3.3110000000       0.0000000000
  0.0000000000       0.0000000000      12.0000000000
